
Gurobi 5.1.0 (mac64) logging started Fri Aug 23 13:44:21 2013


ERROR: User name mismatch (licensed to 'brianschmidt', current user is 'root')


Gurobi 5.1.0 (mac64) logging started Fri Aug 23 16:44:42 2013


ERROR: User name mismatch (licensed to 'brianschmidt', current user is 'root')


Gurobi 5.1.0 (mac64) logging started Fri Aug 23 16:53:05 2013


ERROR: User name mismatch (licensed to 'brianschmidt', current user is 'root')


Gurobi 5.1.0 (mac64) logging started Fri Aug 23 16:55:38 2013


ERROR: User name mismatch (licensed to 'brianschmidt', current user is 'root')


Gurobi 5.1.0 (mac64) logging started Fri Aug 23 16:56:11 2013


ERROR: User name mismatch (licensed to 'brianschmidt', current user is 'root')


Gurobi 5.1.0 (mac64) logging started Fri Aug 23 17:04:52 2013


ERROR: User name mismatch (licensed to 'brianschmidt', current user is 'root')


Gurobi 5.1.0 (mac64) logging started Fri Aug 23 17:08:12 2013


ERROR: User name mismatch (licensed to 'brianschmidt', current user is 'root')


Gurobi 5.1.0 (mac64) logging started Fri Aug 23 17:14:17 2013


ERROR: User name mismatch (licensed to 'brianschmidt', current user is 'root')


Gurobi 5.1.0 (mac64) logging started Fri Aug 23 17:16:00 2013


ERROR: User name mismatch (licensed to 'brianschmidt', current user is 'root')

